param set_len = 38;
param target_sum = 11211640943;
param values := [1] 816491979 [2] 797843810 [3] 116394127 [4] 149394119 [5] 571237185 [6] 766841261 [7] 648007900 [8] 699762042 [9] 38498090 [10] 618267705 [11] 849918007 [12] 847887097 [13] 408344399 [14] 152397482 [15] 214099544 [16] 3451649 [17] 916091690 [18] 887391930 [19] 906063725 [20] 803932393 [21] 124927607 [22] 46770422 [23] 24762265 [24] 511434930 [25] 328131826 [26] 178554275 [27] 249724351 [28] 206730440 [29] 422330814 [30] 525830308 [31] 359720856 [32] 794602289 [33] 328526539 [34] 230095247 [35] 1031640696 [36] 947363642 [37] 541055161 [38] 890813808 ;
